%%%mzn-stat: initTime=0.018988341
%%%mzn-stat: objective=246
%%%mzn-stat: nodes=20982
%%%mzn-stat: restarts=0
%%%mzn-stat: peakDepth=356
%%%mzn-stat: solveTime=2.559543537
%%%mzn-stat: variables=1572
%%%mzn-stat: propagators=1202
%%%mzn-stat: failures=6918
%%%mzn-stat: propagations=651847
%%%mzn-stat: nogoods=6918
%%%mzn-stat: AverageConflictSize=38.99754264238219
%%%mzn-stat: NumUnitNogoodsLearned=245
%%%mzn-stat: AverageLearnedNogoodLength=77.78895634576467
%%%mzn-stat: AverageBacktrackAmount=0
%%%mzn-stat: AverageLbd=9.285198034113906
%%%mzn-stat-end
maxleg = 246;
succ = array1d(1..50,[41, 43, 49, 5, 25, 28, 6, 36, 24, 42, 26, 47, 34, 40, 4, 30, 50, 21, 37, 48, 27, 38, 20, 16, 2, 31, 17, 8, 3, 1, 18, 12, 19, 35, 45, 11, 10, 44, 15, 13, 33, 23, 32, 7, 22, 29, 14, 39, 9, 46]);
% time elapsed: 3.91 s
----------
==========
% time elapsed: 3.91 s
%%%mzn-stat: initTime=0.018988341
%%%mzn-stat: objective=246
%%%mzn-stat: nodes=20982
%%%mzn-stat: restarts=0
%%%mzn-stat: peakDepth=356
%%%mzn-stat: solveTime=2.55954829
%%%mzn-stat: variables=1572
%%%mzn-stat: propagators=1202
%%%mzn-stat: failures=6918
%%%mzn-stat: propagations=651847
%%%mzn-stat: nogoods=6918
%%%mzn-stat: AverageConflictSize=38.99754264238219
%%%mzn-stat: NumUnitNogoodsLearned=245
%%%mzn-stat: AverageLearnedNogoodLength=77.78895634576467
%%%mzn-stat: AverageBacktrackAmount=0
%%%mzn-stat: AverageLbd=9.285198034113906
%%%mzn-stat-end
